NPROCS=0
This instance is clustered!
Gurobi Optimizer version 9.0.0 build v9.0.0rc2 (linux64)
Optimize a model with 16 rows, 65 columns and 128 nonzeros
Model fingerprint: 0x88b5558d
Variable types: 1 continuous, 64 integer (64 binary)
Coefficient statistics:
  Matrix range     [1e+00, 1e+00]
  Objective range  [1e+00, 2e+01]
  Bounds range     [1e+00, 1e+00]
  RHS range        [1e+00, 1e+00]
Presolve removed 2 rows and 21 columns
Presolve time: 0.00s
Presolved: 14 rows, 44 columns, 86 nonzeros
Variable types: 1 continuous, 43 integer (43 binary)

Root relaxation: objective 2.207084e+01, 8 iterations, 0.00 seconds

    Nodes    |    Current Node    |     Objective Bounds      |     Work
 Expl Unexpl |  Obj  Depth IntInf | Incumbent    BestBd   Gap | It/Node Time

     0     0   30.04053    0    9          -   30.04053      -     -    0s
H    0     0                      44.9853437   30.04053  33.2%     -    0s
     0     0   31.23000    0    8   44.98534   31.23000  30.6%     -    0s
     0     0   31.23000    0    8   44.98534   31.23000  30.6%     -    0s
     0     2   31.41939    0    8   44.98534   31.41939  30.2%     -    0s

Cutting planes:
  Gomory: 1
  Lazy constraints: 49

Explored 110 nodes (238 simplex iterations) in 0.04 seconds
Thread count was 12 (of 12 available processors)

Solution count 1: 44.9853 

Optimal solution found (tolerance 1.00e-04)
Best objective 4.498534366571e+01, best bound 4.498534366571e+01, gap 0.0000%

User-callback calls 341, time in user-callback 0.00 sec
/projects/academic/josewalt/caigao/RRARP_BD/BendersDecomp/ret/model_outs/n_6_h_1_algo_2.out
 =====>>>>> Solution is written to file in <../ret/model_outs> !!!
===>> All Done!
